COLUMNS

passenger_count
pickup_ID
dropoff_ID
request_time_sec
pickup_district
dropoff_district
LDuals
IDuals
vehicle_ID
pick_position
drop_position

REQUESTS_INFO
1      794       230       30238     290       266       232       232       17        1         2         
2      1355      881       30249     129       290       234       234       27        1         2         
1      766       937       30325     290       291       120       120       60        1         3         
1      990       1372      30247     290       129       232       232       76        1         3         
2      1091      675       30307     291       189       188       188       85        1         3         
1      703       512       30278     290       199       150       150       97        1         2         
3      163       678       30323     178       290       199       199       158       1         3         
1      896       1209      30325     291       192       204       204       171       1         2         
1      1023      1010      30289     291       290       218       218       192       1         2         
1      914       770       30328     291       290       180       180       207       1         2         
1      991       652       30295     290       189       150       150       260       1         3         
2      863       272       29960     290       127       551       551       281       1         2         
1      163       557       30289     178       189       237       237       289       1         2         
3      333       748       30306     119       290       168       168       290       1         2         
1      373       62        30308     119       98        109       109       306       1         3         
1      883       720       30218     290       290       299       299       382       1         4         
2      887       772       30317     290       290       170       170       383       1         2         
2      311       436       30327     87        100       162       162       391       1         2         
1      662       408       30309     131       299       137       137       448       1         2         
2      884       1046      30064     290       291       448       448       454       1         2         
3      255       458       30241     87        52        230       230       485       1         2         
1      350       651       30318     127       189       179       179       522       1         3         
1      663       34        30307     131       98        130       130       548       1         4         
3      948       647       30193     290       280       322       322       560       1         3         
1      948       399       30324     290       168       189       189       560       2         4         
1      1245      983       30242     192       291       263       263       561       1         2         
2      1068      475       30303     291       52        252       252       567       1         2         
1      924       1187      30310     290       291       146       146       579       1         4         
3      861       483       30261     290       189       276       276       614       1         2         
3      1171      1047      30317     192       291       183       183       632       1         3         
1      759       602       30301     131       189       148       148       635       1         3         
1      925       652       30328     290       189       138       138       641       1         4         
3      795       358       30323     290       168       137       137       663       1         2         
2      923       669       30287     290       280       186       186       673       1         3         
1      466       697       30302     199       189       135       135       698       1         2         
1      755       526       30328     131       52        117       117       709       1         2         
1      1046      626       30255     291       189       226       226       755       1         3         
2      163       678       30323     178       290       199       199       761       1         3         
4      304       348       30292     299       299       186       186       771       1         2         
3      327       416       30318     299       100       210       210       804       1         2         
4      1026      849       30312     291       291       268       268       818       1         2         
1      852       670       30312     291       280       140       140       820       1         3         
1      1148      1088      30304     291       291       171       171       832       1         2         
1      950       696       30301     290       189       170       170       841       1         3         
2      772       1128      30321     290       291       146       146       888       1         3         
2      366       544       30319     299       52        154       154       911       1         3         
4      874       968       30208     291       290       284       284       941       1         2         
1      924       651       30211     290       189       261       261       1009      1         2         
2      1213      1055      30121     129       84        341       341       1022      1         3         
1      253       767       30310     206       290       117       117       1057      1         5         
1      1342      649       30199     129       189       261       261       1089      1         3         
1      333       418       30284     119       168       190       190       1100      1         2         
1      795       940       30165     290       291       317       317       1104      1         2         
4      396       573       30325     119       189       96        96        1150      1         2         
1      860       991       30326     290       290       137       137       1171      1         3         
1      179       193       30322     178       266       207       207       1172      1         2         
3      903       531       30304     290       189       219       219       1195      1         2         
1      923       671       30214     290       280       309       309       1214      1         2         
3      970       545       30297     290       52        201       201       1220      1         3         
1      725       134       30286     290       9         173       173       1229      1         3         
1      881       485       30307     290       189       207       207       1232      1         3         
1      992       727       30292     290       290       200       200       1235      1         2         
2      883       840       30284     290       290       225       225       1242      1         2         
1      791       578       30300     290       189       169       169       1248      1         2         
1      1568      1490      30299     296       296       160       160       1251      1         2         
1      893       858       30325     291       290       152       152       1252      1         3         
1      430       116       30192     52        9         237       237       1296      1         2         
3      1091      1208      30236     291       192       330       330       1301      1         2         
3      826       620       30321     291       131       141       141       1303      1         4         
1      850       600       30316     291       280       160       160       1303      2         3         
3      1091      1208      30236     291       192       330       330       1307      1         2         
1      304       547       30313     299       52        147       147       1322      1         3         
1      1230      1224      30226     129       192       208       208       1328      1         2         
3      969       834       30189     290       290       267       267       1334      1         2         
1      345       421       30314     299       168       172       172       1336      1         3         
1      483       486       30307     189       199       131       131       1397      1         2         
1      817       34        30307     290       98        137       137       1401      1         5         
1      499       651       30307     52        189       144       144       1421      1         2         
1      981       1225      30271     291       192       282       282       1431      1         2         
1      881       122       30320     290       54        194       194       1438      1         3         
1      962       990       30311     291       290       232       232       1447      1         2         
1      349       483       30300     127       189       165       165       1491      1         4         
2      306       415       30316     299       100       199       199       1491      2         3         
1      1234      1074      30148     129       84        290       290       1499      1         2         
1      557       335       30330     189       119       0         0         0         0         0         
1      1023      1045      30330     291       291       0         0         0         0         0         
1      395       628       30330     100       189       0         0         0         0         0         
1      728       690       30330     290       131       0         0         0         0         0         
1      1022      717       30330     291       189       0         0         0         0         0         
1      43        651       30330     9         189       0         0         0         0         0         
1      858       969       30330     290       290       0         0         0         0         0         
3      794       698       30331     290       189       0         0         0         0         0         
1      991       670       30331     290       280       0         0         0         0         0         
3      794       698       30331     290       189       0         0         0         0         0         
1      712       672       30332     131       189       0         0         0         0         0         
1      476       344       30332     52        299       0         0         0         0         0         
1      1024      1207      30332     291       192       0         0         0         0         0         
1      378       358       30332     168       168       0         0         0         0         0         
1      273       397       30333     206       168       0         0         0         0         0         
1      330       532       30333     127       199       0         0         0         0         0         
2      887       795       30333     290       290       0         0         0         0         0         
1      269       350       30333     127       127       0         0         0         0         0         
1      499       233       30333     52        206       0         0         0         0         0         
2      721       915       30333     290       291       0         0         0         0         0         
1      68        35        30334     287       98        0         0         0         0         0         
1      199       650       30334     178       189       0         0         0         0         0         
1      818       484       30334     290       189       0         0         0         0         0         
3      791       392       30334     290       52        0         0         0         0         0         
3      791       392       30334     290       52        0         0         0         0         0         
1      526       669       30335     52        280       0         0         0         0         0         
1      781       574       30335     291       189       0         0         0         0         0         
1      631       642       30335     189       131       0         0         0         0         0         
1      888       439       30335     290       189       0         0         0         0         0         
1      532       650       30335     199       189       0         0         0         0         0         
1      81        371       30335     98        52        0         0         0         0         0         
3      884       812       30335     290       290       0         0         0         0         0         
3      884       812       30335     290       290       0         0         0         0         0         
1      947       698       30336     290       189       0         0         0         0         0         
3      317       529       30336     277       189       0         0         0         0         0         
1      801       556       30336     291       199       0         0         0         0         0         
1      583       948       30336     189       290       0         0         0         0         0         
1      443       377       30336     168       168       0         0         0         0         0         
2      287       325       30337     299       299       0         0         0         0         0         
1      694       527       30337     189       52        0         0         0         0         0         
1      726       290       30337     290       127       0         0         0         0         0         
1      441       531       30337     168       189       0         0         0         0         0         
1      701       781       30337     290       291       0         0         0         0         0         
1      558       291       30338     189       87        0         0         0         0         0         
1      835       604       30338     290       189       0         0         0         0         0         
4      630       558       30338     189       189       0         0         0         0         0         
2      171       578       30339     286       189       0         0         0         0         0         
4      715       507       30339     131       189       0         0         0         0         0         
1      479       290       30339     52        127       0         0         0         0         0         
2      760       984       30339     291       291       0         0         0         0         0         
3      1265      1010      30339     192       290       0         0         0         0         0         
2      984       1207      30339     291       192       0         0         0         0         0         
3      984       1207      30339     291       192       0         0         0         0         0         
2      1265      1010      30339     192       290       0         0         0         0         0         
2      507       416       30340     189       100       0         0         0         0         0         
1      788       748       30340     290       290       0         0         0         0         0         
3      982       1026      30340     291       291       0         0         0         0         0         
1      915       719       30340     291       189       0         0         0         0         0         
1      745       840       30340     290       290       0         0         0         0         0         
3      649       534       30340     189       199       0         0         0         0         0         
3      649       534       30340     189       199       0         0         0         0         0         
1      64        629       30341     98        189       0         0         0         0         0         
1      410       499       30341     52        52        0         0         0         0         0         
1      883       789       30341     290       290       0         0         0         0         0         
1      133       580       30342     9         189       0         0         0         0         0         
1      267       189       30342     266       286       0         0         0         0         0         
1      484       668       30342     189       280       0         0         0         0         0         
4      466       605       30342     199       189       0         0         0         0         0         
1      772       629       30343     290       189       0         0         0         0         0         
1      512       570       30343     199       52        0         0         0         0         0         
1      458       134       30343     52        9         0         0         0         0         0         
1      904       791       30343     290       290       0         0         0         0         0         
1      609       96        30343     189       9         0         0         0         0         0         
1      695       973       30343     189       84        0         0         0         0         0         
1      630       695       30344     189       189       0         0         0         0         0         
1      1026      860       30344     291       290       0         0         0         0         0         
2      442       692       30344     168       280       0         0         0         0         0         
3      442       692       30344     168       280       0         0         0         0         0         
3      1355      1267      30344     129       129       0         0         0         0         0         
1      698       604       30345     189       189       0         0         0         0         0         
1      748       693       30345     290       280       0         0         0         0         0         
1      256       312       30345     87        87        0         0         0         0         0         
1      929       687       30345     290       131       0         0         0         0         0         
1      1115      1048      30345     84        291       0         0         0         0         0         
1      354       398       30345     119       168       0         0         0         0         0         
1      504       692       30345     52        280       0         0         0         0         0         
1      527       571       30346     52        52        0         0         0         0         0         
1      887       1144      30346     290       84        0         0         0         0         0         
2      914       377       30346     291       168       0         0         0         0         0         
1      723       782       30346     290       291       0         0         0         0         0         
1      909       651       30348     290       189       0         0         0         0         0         
4      248       116       30348     266       9         0         0         0         0         0         
1      641       239       30348     131       87        0         0         0         0         0         
2      913       677       30349     291       189       0         0         0         0         0         
1      464       376       30349     168       168       0         0         0         0         0         
1      739       461       30349     189       189       0         0         0         0         0         
1      604       697       30349     189       189       0         0         0         0         0         
1      1157      1189      30350     129       192       0         0         0         0         0         
3      834       852       30350     290       291       0         0         0         0         0         
3      66        127       30350     98        178       0         0         0         0         0         
3      66        127       30350     98        178       0         0         0         0         0         
2      834       852       30350     290       291       0         0         0         0         0         
1      873       801       30350     291       291       0         0         0         0         0         
3      914       669       30350     291       280       0         0         0         0         0         
1      653       791       30350     189       290       0         0         0         0         0         
1      694       1087      30350     189       291       0         0         0         0         0         
1      791       813       30350     290       290       0         0         0         0         0         
1      896       457       30350     291       52        0         0         0         0         0         
2      557       488       30350     189       199       0         0         0         0         0         
1      312       325       30350     87        299       0         0         0         0         0         
2      351       600       30351     52        280       0         0         0         0         0         
1      358       485       30351     168       189       0         0         0         0         0         
1      152       625       30351     9         189       0         0         0         0         0         
1      155       390       30351     286       52        0         0         0         0         0         
1      229       394       30351     266       100       0         0         0         0         0         
1      557       313       30351     189       87        0         0         0         0         0         
1      662       353       30351     131       119       0         0         0         0         0         
1      557       510       30352     189       199       0         0         0         0         0         
1      397       508       30352     168       199       0         0         0         0         0         
1      726       928       30352     290       290       0         0         0         0         0         
1      464       605       30353     168       189       0         0         0         0         0         
1      1068      980       30353     291       291       0         0         0         0         0         
1      557       417       30353     189       100       0         0         0         0         0         
1      378       727       30353     168       290       0         0         0         0         0         
1      506       463       30353     189       168       0         0         0         0         0         
1      233       556       30353     206       199       0         0         0         0         0         
1      533       507       30353     199       189       0         0         0         0         0         
1      338       627       30353     277       189       0         0         0         0         0         
1      466       694       30353     199       189       0         0         0         0         0         
1      371       49        30353     52        98        0         0         0         0         0         
1      464       416       30353     168       100       0         0         0         0         0         
2      814       371       30353     290       52        0         0         0         0         0         
3      814       371       30353     290       52        0         0         0         0         0         
1      61        484       30353     98        189       0         0         0         0         0         
2      800       438       30354     131       100       0         0         0         0         0         
1      767       605       30354     290       189       0         0         0         0         0         
1      837       554       30354     290       189       0         0         0         0         0         
1      1310      1266      30354     84        192       0         0         0         0         0         
1      675       671       30354     189       280       0         0         0         0         0         
1      873       904       30354     291       290       0         0         0         0         0         
1      559       599       30355     189       280       0         0         0         0         0         
2      597       727       30355     131       290       0         0         0         0         0         
1      366       604       30355     299       189       0         0         0         0         0         
1      603       571       30355     189       52        0         0         0         0         0         
3      597       727       30355     131       290       0         0         0         0         0         
3      694       602       30355     189       189       0         0         0         0         0         
1      701       464       30355     290       168       0         0         0         0         0         
1      601       527       30355     189       52        0         0         0         0         0         
1      721       760       30355     290       291       0         0         0         0         0         
1      1044      781       30355     291       291       0         0         0         0         0         
3      939       719       30356     291       189       0         0         0         0         0         
2      594       523       30356     131       52        0         0         0         0         0         
1      722       946       30356     290       290       0         0         0         0         0         
1      837       959       30356     290       291       0         0         0         0         0         
3      1172      1227      30356     129       192       0         0         0         0         0         
2      1172      1227      30356     129       192       0         0         0         0         0         
1      373       526       30357     119       52        0         0         0         0         0         
1      537       674       30357     189       189       0         0         0         0         0         
1      597       626       30357     131       189       0         0         0         0         0         
1      438       398       30357     100       168       0         0         0         0         0         
1      256       48        30357     87        98        0         0         0         0         0         
1      905       116       30357     290       9         0         0         0         0         0         
1      305       208       30357     299       286       0         0         0         0         0         
3      388       436       30358     299       100       0         0         0         0         0         
1      969       1011      30358     290       84        0         0         0         0         0         
2      388       436       30358     299       100       0         0         0         0         0         
2      893       906       30358     291       290       0         0         0         0         0         
2      873       771       30358     291       290       0         0         0         0         0         
3      893       906       30358     291       290       0         0         0         0         0         
1      726       579       30359     290       189       0         0         0         0         0         
1      304       348       30359     299       299       0         0         0         0         0         
1      828       526       30359     291       52        0         0         0         0         0         
1      556       568       30359     199       52        0         0         0         0         0         
2      881       950       30359     290       290       0         0         0         0         0         
3      970       959       30359     290       291       0         0         0         0         0         
3      970       959       30359     290       291       0         0         0         0         0         
